c ---- [ banner ] ------------------------------------------------------------
c
c Kissat SAT Solver
c 
c Copyright (c) 2021-2024 Armin Biere University of Freiburg
c Copyright (c) 2019-2021 Armin Biere Johannes Kepler University Linz
c 
c Version 4.0.1 43f02cf3e992cb44653b35e5cb26f93281552ae0
c gcc (Ubuntu 13.2.0-23ubuntu4) 13.2.0 -W -Wall -O3 -DNDEBUG
c Thu Sep 12 12:27:46 CEST 2024 Linux abryzen9 6.8.0-41-generic x86_64
c
c ---- [ parsing ] -----------------------------------------------------------
c
c opened and reading DIMACS file:
c
c   /data/artifact/AMulet2.0_artifact/exp4/cnf_compress2rs_64/64_64_U1_DT_BK_Multgen_compress2rs.cnf
c
c parsed 'p cnf 34613 135358' header
c closing input after reading 2634150 bytes (3 MB)
c finished parsing after 0.02 seconds
c
c ---- [ options ] -----------------------------------------------------------
c
c --stable=0                       (different from default '1')
c
c ---- [ solving ] -----------------------------------------------------------
c
c  seconds switched rate     size/glue tier1  binary           remaining
c         MB reductions conflicts size  tier2     irredundant
c          level restarts redundant glue  trail           variables
c
c *  0.02 10 0 0 0  0 0   0   0 0.0 0 0 0 0 0% 27336 108020 34610 100%
c (  0.03 12 0 0 0  0 0   0   0 0.0 0 0 0 0 0% 27336 108020 34610 100%
c .  0.04 13 0 0 0  0 0   0   0 0.0 0 0 0 0 0% 27332 108020 34610 100%
c c  0.09 21 0 0 0  0 0   0   0 0.0 0 0 0 0 0% 34236 94212 31158 90%
c d  0.09 21 0 0 0  0 0   0   0 0.0 0 0 0 0 0% 27332 94212 31158 90%
c =  0.13 21 0 0 0  0 0   0   0 0.0 0 0 0 0 0% 27872 94212 30888 89%
c d  0.13 21 0 0 0  0 0   0   0 0.0 0 0 0 0 0% 27332 94212 30888 89%
c f  0.19 19 0 0 0  0 0   0   0 0.0 0 0 0 0 0% 30180 89664 32588 94%
c e  0.27 28 0 0 0  0 0   0   0 0.0 0 0 0 0 0% 8645 103447 21626 62%
c )  0.27 28 0 0 0  0 0   0   0 0.0 0 0 0 0 0% 8645 103447 21626 62%
c {  0.28 28 0 0 0  0 0   0   0 0.0 0 0 2 6 0% 8645 103447 21626 62%
c -  0.41 28 131 0 1 159 19 1001 783 3.2 19 6 4 12 26% 8658 103447 21626 62%
c -  0.54 28 343 0 2 265 27 2001 1506 3.5 21 6 3 11 26% 8681 103447 21626 62%
c c  0.66 22 326 0 2 330 28 2503 1945 3.7 23 6 3 11 26% 8690 103427 21621 62%
c d  0.66 22 326 0 2 330 28 2503 1944 3.7 23 6 3 11 26% 8680 103427 21621 62%
c u  0.67 22 326 0 2 330 28 2503 1495 3.7 23 6 3 11 26% 8682 103427 21621 62%
c v  0.68 22 326 0 2 330 28 2503 1368 3.7 23 6 3 11 26% 8683 103427 21621 62%
c w  0.70 22 326 0 2 330 28 2503 1368 3.7 23 6 3 11 26% 8683 103427 21621 62%
c x  0.71 22 326 0 2 330 28 2503 1368 3.7 23 6 3 11 26% 8683 103424 21621 62%
c =  0.76 22 326 0 2 330 28 2503 1368 3.7 23 6 3 11 26% 8979 103424 21473 62%
c
c  seconds   switched   rate       size/glue tier1     binary          remaining
c         MB  reductions conflicts       size  tier2      irredundant
c           level restarts    redundant    glue    trail          variables
c
c d  0.76 22 326 0 2 330 28 2503 1367 3.7 23 6 3 11 26% 8683 103424 21473 62%
c f  0.78 22 326 0 2 330 28 2503 1367 3.7 23 6 3 11 26% 9327 102182 22071 64%
c u  0.80 22 326 0 2 330 28 2503 1334 3.7 23 6 3 11 26% 9327 102182 22071 64%
c v  0.81 22 326 0 2 330 28 2503 1245 3.7 23 6 3 11 26% 9327 102182 22071 64%
c w  0.84 26 326 0 2 330 28 2503 1241 3.7 23 6 3 11 26% 9327 102182 22071 64%
c =  0.88 26 326 0 2 330 28 2503 1241 3.7 23 6 3 11 26% 9675 102182 21897 63%
c d  0.89 26 326 0 2 330 28 2503 1241 3.7 23 6 3 11 26% 9281 102182 21897 63%
c f  0.91 26 326 0 2 330 28 2503 1241 3.7 23 6 3 11 26% 9651 101627 22082 64%
c -  1.06 26 320 0 3 441 31 3415 1774 3.6 23 6 3 12 25% 9658 101627 22082 64%
c -  1.38 26 409 0 4 653 35 5147 2963 4.0 27 7 2 11 26% 9682 101627 22082 64%
c -  1.52 26 383 0 5 714 31 7147 3824 3.9 24 6 2 9 24% 9810 101627 22082 64%
c c  1.63 26 392 0 5 761 32 7707 4315 4.0 24 6 2 9 24% 9825 101445 22029 64%
c d  1.63 26 392 0 5 761 32 7707 4244 4.0 24 6 2 9 24% 9719 101445 22029 64%
c u  1.65 26 392 0 5 761 32 7707 3383 4.0 24 6 2 9 24% 9733 101445 22029 64%
c v  1.67 26 392 0 5 761 32 7707 2952 4.0 24 6 2 9 24% 9733 101445 22029 64%
c w  1.70 26 392 0 5 761 32 7707 2952 4.0 24 6 2 9 24% 9733 101445 22029 64%
c x  1.71 26 392 0 5 761 32 7707 2952 4.0 24 6 2 9 24% 9733 101090 22029 64%
c =  1.79 26 392 0 5 761 32 7707 2952 4.0 24 6 2 9 24% 10395 101090 21698 63%
c d  1.79 26 392 0 5 761 32 7707 2934 4.0 24 6 2 9 24% 9625 101090 21694 63%
c t  1.80 26 392 0 5 761 32 7707 2934 4.0 24 6 2 9 24% 9620 101090 21694 63%
c
c  seconds   switched   rate       size/glue tier1    binary          remaining
c         MB  reductions conflicts       size  tier2      irredundant
c           level restarts    redundant    glue   trail          variables
c
c f  1.83 26 392 0 5 761 32 7707 2934 4.0 24 6 2 9 24% 10886 99189 22327 65%
c u  1.89 26 392 0 5 761 32 7707 2742 4.0 24 6 2 9 24% 10889 99189 22327 65%
c v  1.90 26 392 0 5 761 32 7707 2652 4.0 24 6 2 9 24% 10890 99189 22327 65%
c w  1.94 26 392 0 5 761 32 7707 2640 4.0 24 6 2 9 24% 10890 99189 22327 65%
c x  1.95 26 392 0 5 761 32 7707 2640 4.0 24 6 2 9 24% 10890 98705 22327 65%
c =  2.02 26 392 0 5 761 32 7707 2640 4.0 24 6 2 9 24% 11426 98705 22059 64%
c d  2.03 26 392 0 5 761 32 7707 2638 4.0 24 6 2 9 24% 10811 98705 22059 64%
c t  2.04 26 392 0 5 761 32 7707 2638 4.0 24 6 2 9 24% 10792 98705 22059 64%
c f  2.07 26 392 0 5 761 32 7707 2638 4.0 24 6 2 9 24% 11598 97496 22462 65%
c -  2.37 26 366 0 6 954 32 9385 3544 4.1 25 6 2 9 24% 11645 97496 22462 65%
c o  2.51 26 354 0 6 1030 32 10005 4113 4.0 25 6 2 9 25% 11649 97496 22462 65%
c -  2.96 26 350 0 7 1264 34 11835 5052 4.4 28 6 2 8 26% 11706 97496 22462 65%
c s  3.00 26 371 0 7 1264 33 12509 5632 4.3 27 6 2 8 25% 11722 94828 22462 65%
c e  3.08 26 371 0 7 1264 33 12509 5632 4.3 27 6 2 8 25% 10261 95720 21634 63%
c s  3.09 26 371 0 7 1264 33 12509 5632 4.3 27 6 2 8 25% 10262 94813 21634 63%
c e  3.10 26 371 0 7 1264 33 12509 5632 4.3 27 6 2 8 25% 10196 94877 21614 62%
c ^  3.10 26 371 0 7 1264 33 12509 5632 4.3 27 6 2 8 25% 10196 94877 21614 62%
c -  3.38 26 355 0 8 1400 32 14480 6246 4.2 26 6 2 8 26% 10254 94877 21614 62%
c d  3.68 26 349 0 8 1555 33 15787 7290 4.4 28 7 2 8 26% 10005 94877 21425 62%
c u  3.70 26 349 0 8 1555 33 15787 5789 4.4 28 7 2 8 26% 10012 94877 21425 62%
c
c  seconds   switched    rate        size/glue tier1    binary          remaining
c         MB  reductions   conflicts       size  tier2      irredundant
c           level  restarts     redundant    glue   trail          variables
c
c v  3.74 26 349 0 8 1555 33 15787 4988 4.4 28 7 2 8 26% 10012 94877 21425 62%
c w  3.80 26 349 0 8 1555 33 15787 4987 4.4 28 7 2 8 26% 10012 94877 21425 62%
c x  3.83 26 349 0 8 1555 33 15787 4987 4.4 28 7 2 8 26% 10012 91202 21425 62%
c =  3.99 26 349 0 8 1555 33 15787 4987 4.4 28 7 2 8 26% 11962 91200 20450 59%
c d  4.00 26 349 0 8 1555 33 15787 4851 4.4 28 7 2 8 26% 9572 91200 20450 59%
c t  4.01 26 349 0 8 1555 33 15787 4851 4.4 28 7 2 8 26% 9554 91200 20450 59%
c f  4.05 26 349 0 8 1555 33 15787 4851 4.4 28 7 2 8 26% 9584 91138 20466 59%
c u  4.11 26 349 0 8 1555 33 15787 4391 4.4 28 7 2 8 26% 9586 91138 20466 59%
c v  4.13 26 349 0 8 1555 33 15787 4266 4.4 28 7 2 8 26% 9586 91138 20466 59%
c w  4.20 26 349 0 8 1555 33 15787 4252 4.4 28 7 2 8 26% 9586 91138 20466 59%
c x  4.23 26 349 0 8 1555 33 15787 4252 4.4 28 7 2 8 26% 9587 89063 20466 59%
c =  4.39 26 349 0 8 1555 33 15787 4252 4.4 28 7 2 8 26% 11527 89063 19496 56%
c d  4.39 26 349 0 8 1555 33 15787 4228 4.4 28 7 2 8 26% 9223 89063 19496 56%
c t  4.40 26 349 0 8 1555 33 15787 4228 4.4 28 7 2 8 26% 9222 89063 19496 56%
c -  4.53 26 347 0 9 1596 31 17308 4962 4.2 27 6 2 7 25% 9256 89063 19496 56%
c o  4.91 26 313 0 9 1815 30 20181 7622 3.9 25 6 2 7 25% 9280 89063 19496 56%
c -  4.95 26 312 0 10 1840 30 20308 6882 3.9 25 6 2 7 25% 9281 89063 19496 56%
c -  5.32 26 303 0 11 2026 29 23475 8632 3.8 24 6 2 7 26% 9345 89063 19496 56%
c s  5.56 26 302 0 11 2138 29 25010 9982 3.8 24 6 2 7 25% 9374 88038 19496 56%
c e  5.65 26 302 0 11 2138 29 25010 9982 3.8 24 6 2 7 25% 7930 91785 16341 47%
c
c  seconds   switched     rate        size/glue tier1    binary         remaining
c         MB   reductions   conflicts       size  tier2     irredundant
c           level   restarts     redundant    glue   trail         variables
c
c 2  5.65 26 302 0 11 2138 29 25010 9982 3.8 24 6 2 7 25% 7929 91785 16341 47%
c s  5.67 26 302 0 11 2138 29 25010 9982 3.8 24 6 2 7 25% 7934 87398 16341 47%
c e  5.71 26 302 0 11 2138 29 25010 9982 3.8 24 6 2 7 25% 7925 87422 16324 47%
c ^  5.71 26 302 0 11 2138 29 25010 9982 3.8 24 6 2 7 25% 7925 87422 16324 47%
c -  5.99 26 290 0 12 2258 28 26792 8198 3.6 23 6 2 7 26% 7962 87422 16324 47%
c d  6.01 26 289 0 12 2269 28 26913 8306 3.6 23 6 2 7 25% 7907 87422 16290 47%
c u  6.04 26 289 0 12 2269 28 26913 6765 3.6 23 6 2 7 25% 7922 87422 16290 47%
c v  6.08 26 289 0 12 2269 28 26913 5794 3.6 23 6 2 7 25% 7922 87422 16290 47%
c w  6.09 26 289 0 12 2269 28 26913 5790 3.6 23 6 2 7 25% 7922 87422 16290 47%
c x  6.18 26 289 0 12 2269 28 26913 5790 3.6 23 6 2 7 25% 7922 85361 16290 47%
c =  6.42 26 289 0 12 2269 28 26913 5790 3.6 23 6 2 7 25% 10292 85360 15105 44%
c d  6.43 26 289 0 12 2269 28 26913 5582 3.6 23 6 2 7 25% 7830 85360 15102 44%
c t  6.45 26 289 0 12 2269 28 26913 5582 3.6 23 6 2 7 25% 7813 85360 15102 44%
c f  6.52 26 289 0 12 2269 28 26913 5582 3.6 23 6 2 7 25% 7809 85322 15113 44%
c u  6.56 26 289 0 12 2269 28 26913 5034 3.6 23 6 2 7 25% 7809 85322 15113 44%
c v  6.59 26 289 0 12 2269 28 26913 4927 3.6 23 6 2 7 25% 7809 85322 15113 44%
c w  6.60 26 289 0 12 2269 28 26913 4925 3.6 23 6 2 7 25% 7809 85322 15113 44%
c x  6.71 26 289 0 12 2269 28 26913 4925 3.6 23 6 2 7 25% 7809 78282 15113 44%
c =  6.93 26 289 0 12 2269 28 26913 4925 3.6 23 6 2 7 25% 8633 78256 14700 42%
c d  6.94 26 289 0 12 2269 28 26913 4861 3.6 23 6 2 7 25% 7793 78256 14700 42%
c
c  seconds   switched     rate        size/glue tier1    binary         remaining
c         MB   reductions   conflicts       size  tier2     irredundant
c           level   restarts     redundant    glue   trail         variables
c
c t  6.96 26 289 0 12 2269 28 26913 4861 3.6 23 6 2 7 25% 7792 78256 14700 42%
c -  7.54 26 269 0 13 2509 27 30258 6884 3.4 21 6 2 7 25% 7814 78255 14700 42%
c -  8.22 26 251 0 14 2838 26 33863 8989 3.3 20 6 2 7 25% 7845 78252 14700 42%
c -  8.85 26 242 0 15 3160 25 37604 10636 3.2 20 6 2 7 25% 7900 78249 14700 42%
c o  9.13 26 237 0 15 3375 25 40196 12761 3.2 20 6 2 7 25% 7936 78248 14700 42%
c c  9.29 26 238 0 15 3513 26 41251 13701 3.2 20 6 2 7 25% 7992 77924 14629 42%
c d  9.30 26 238 0 15 3513 26 41251 13485 3.2 20 6 2 7 25% 7838 77924 14621 42%
c u  9.33 26 238 0 15 3513 26 41251 11361 3.2 20 6 2 7 25% 7848 77924 14621 42%
c v  9.37 26 238 0 15 3513 26 41251 9839 3.2 20 6 2 7 25% 7851 77924 14621 42%
c w  9.40 26 238 0 15 3513 26 41251 9839 3.2 20 6 2 7 25% 7851 77924 14621 42%
c x  9.44 26 238 0 15 3513 26 41251 9838 3.2 20 6 2 7 25% 7851 73513 14621 42%
c =  9.63 26 238 0 15 3513 26 41251 9838 3.2 20 6 2 7 25% 8549 73513 14272 41%
c d  9.63 26 238 0 15 3513 26 41251 9534 3.2 20 6 2 7 25% 7793 73513 14272 41%
c t  9.64 26 238 0 15 3513 26 41251 9534 3.2 20 6 2 7 25% 7785 73513 14272 41%
c u  9.69 26 238 0 15 3513 26 41251 8933 3.2 20 6 2 7 25% 7785 73513 14272 41%
c v  9.71 26 238 0 15 3513 26 41251 8623 3.2 20 6 2 7 25% 7785 73513 14272 41%
c w  9.77 26 238 0 15 3513 26 41251 8616 3.2 20 6 2 7 25% 7785 73513 14272 41%
c x  9.81 26 238 0 15 3513 26 41251 8615 3.2 20 6 2 7 25% 7785 73099 14272 41%
c =  9.97 26 238 0 15 3513 26 41251 8615 3.2 20 6 2 7 25% 7845 73099 14242 41%
c d  9.98 26 238 0 15 3513 26 41251 8608 3.2 20 6 2 7 25% 7778 73099 14242 41%
c
c  seconds   switched     rate        size/glue tier1    binary         remaining
c         MB   reductions   conflicts       size  tier2     irredundant
c           level   restarts     redundant    glue   trail         variables
c
c - 10.02 26 239 0 16 3516 26 41478 7706 3.2 20 6 2 7 25% 7778 73099 14242 41%
c - 10.37 26 231 0 17 3792 25 45482 10038 3.1 20 6 2 7 25% 7795 73098 14242 41%
c - 10.85 26 227 0 18 4161 25 49606 12285 3.1 19 6 2 7 25% 7817 73093 14242 41%
c s 11.05 26 222 0 18 4314 24 52112 14413 3.0 19 6 2 7 25% 7841 70316 14242 41%
c e 11.13 26 222 0 18 4314 24 52112 14413 3.0 19 6 2 7 25% 6930 72257 13215 38%
c s 11.13 26 222 0 18 4314 24 52112 14413 3.0 19 6 2 7 25% 6933 71769 13215 38%
c e 11.14 26 222 0 18 4314 24 52112 14413 3.0 19 6 2 7 25% 6923 71800 13203 38%
c ^ 11.14 26 222 0 18 4314 24 52112 14413 3.0 19 6 2 7 25% 6923 71800 13203 38%
c - 11.37 26 217 0 19 4516 24 53848 12416 3.0 19 6 2 6 25% 6932 71800 13203 38%
c - 11.75 26 209 0 20 4879 24 58206 14257 2.9 18 6 2 6 25% 6985 71800 13203 38%
c c 11.88 26 207 0 20 4971 24 58903 14884 2.9 18 6 2 6 25% 7019 71577 13159 38%
c d 11.88 26 207 0 20 4971 24 58903 14667 2.9 18 6 2 6 25% 6931 71577 13159 38%
c u 11.94 26 207 0 20 4971 24 58903 12199 2.9 18 6 2 6 25% 6946 71577 13159 38%
c v 12.00 26 207 0 20 4971 24 58903 10631 2.9 18 6 2 6 25% 6953 71577 13159 38%
c w 12.03 26 207 0 20 4971 24 58903 10598 2.9 18 6 2 6 25% 6953 71577 13159 38%
c x 12.09 26 207 0 20 4971 24 58903 10597 2.9 18 6 2 6 25% 6953 71188 13159 38%
c d 12.30 26 207 0 20 4971 24 58903 10590 2.9 18 6 2 6 25% 6949 71188 13157 38%
c t 12.31 26 207 0 20 4971 24 58903 10590 2.9 18 6 2 6 25% 6943 71188 13157 38%
c f 12.34 26 207 0 20 4971 24 58903 10590 2.9 18 6 2 6 25% 6949 71167 13160 38%
c c 12.37 26 207 0 20 4971 24 58903 10584 2.9 18 6 2 6 25% 6951 71159 13159 38%
c
c  seconds   switched     rate         size/glue tier1    binary         remaining
c         MB   reductions   conflicts        size  tier2     irredundant
c           level   restarts      redundant    glue   trail         variables
c
c d 12.38 26 207 0 20 4971 24 58903 10584 2.9 18 6 2 6 25% 6949 71159 13159 38%
c u 12.41 26 207 0 20 4971 24 58903 10147 2.9 18 6 2 6 25% 6958 71159 13159 38%
c v 12.43 26 207 0 20 4971 24 58903 9903 2.9 18 6 2 6 25% 6958 71159 13159 38%
c w 12.45 26 207 0 20 4971 24 58903 9895 2.9 18 6 2 6 25% 6958 71159 13159 38%
c x 12.53 26 207 0 20 4971 24 58903 9895 2.9 18 6 2 6 25% 6958 69764 13159 38%
c d 12.54 26 207 0 20 4971 24 58903 9894 2.9 18 6 2 6 25% 6956 69764 13158 38%
c - 13.03 26 199 0 21 5356 23 62678 12061 2.8 18 6 2 6 25% 6965 69764 13158 38%
c - 13.61 26 191 0 22 5827 23 67260 14437 2.8 18 6 2 6 26% 6993 69764 13158 38%
c o 14.09 26 187 0 22 6250 23 70196 17210 2.7 18 6 2 6 26% 7002 69764 13158 38%
c - 14.30 26 185 0 23 6444 23 71951 16561 2.7 17 6 2 6 26% 7011 69764 13158 38%
c - 14.90 26 182 0 24 6967 23 76746 18265 2.7 18 7 2 6 26% 7098 69764 13158 38%
c d 15.26 26 177 0 24 7257 23 80004 20653 2.7 18 7 2 6 26% 7009 69764 13086 38%
c u 15.32 26 177 0 24 7257 23 80004 17309 2.7 18 7 2 6 26% 7053 69764 13086 38%
c v 15.40 26 177 0 24 7257 23 80004 15061 2.7 18 7 2 6 26% 7058 69764 13086 38%
c w 15.46 26 177 0 24 7257 23 80004 15034 2.7 18 7 2 6 26% 7058 69764 13086 38%
c x 15.53 26 177 0 24 7257 23 80004 15034 2.7 18 7 2 6 26% 7059 69277 13086 38%
c = 15.67 26 177 0 24 7257 23 80004 15034 2.7 18 7 2 6 26% 7193 69277 13019 38%
c d 15.67 26 177 0 24 7257 23 80004 14911 2.7 18 7 2 6 26% 6986 69277 13004 38%
c t 15.69 26 177 0 24 7257 23 80004 14911 2.7 18 7 2 6 26% 6976 69277 13004 38%
c c 15.74 26 177 0 24 7257 23 80004 14911 2.7 18 7 2 6 26% 6997 69189 12993 38%
c
c  seconds   switched     rate         size/glue tier1    binary         remaining
c         MB   reductions   conflicts        size  tier2     irredundant
c           level   restarts      redundant    glue   trail         variables
c
c d 15.74 26 177 0 24 7257 23 80004 14880 2.7 18 7 2 6 26% 6975 69189 12993 38%
c u 15.79 26 177 0 24 7257 23 80004 14179 2.7 18 7 2 6 26% 6987 69189 12993 38%
c v 15.83 26 177 0 24 7257 23 80004 13779 2.7 18 7 2 6 26% 6991 69189 12993 38%
c w 15.91 26 177 0 24 7257 23 80004 13589 2.7 18 7 2 6 26% 6991 69189 12993 38%
c x 15.98 26 177 0 24 7257 23 80004 13589 2.7 18 7 2 6 26% 6991 68662 12993 38%
c = 16.31 26 177 0 24 7257 23 80004 13589 2.7 18 7 2 6 26% 7691 68662 12643 37%
c d 16.32 26 177 0 24 7257 23 80004 13236 2.7 18 7 2 6 26% 6906 68662 12643 37%
c - 16.58 26 175 0 25 7427 22 81645 13226 2.6 18 7 2 6 26% 6907 68662 12643 37%
c - 17.44 26 171 0 26 7982 22 86645 15900 2.6 17 7 2 6 26% 6929 68662 12643 37%
c - 18.90 26 169 0 27 8747 23 91744 18328 2.7 18 7 2 6 27% 6944 68662 12643 37%
c s 19.77 26 168 0 27 9190 23 95848 21937 2.7 18 7 2 6 27% 6972 67301 12643 37%
c e 19.88 26 168 0 27 9190 23 95848 21937 2.7 18 7 2 6 27% 4884 72842 11465 33%
c s 19.90 26 168 0 27 9190 23 95848 21937 2.7 18 7 2 6 27% 4884 72655 11465 33%
c e 19.91 26 168 0 27 9190 23 95848 21937 2.7 18 7 2 6 27% 4880 72717 11442 33%
c ^ 19.91 26 168 0 27 9190 23 95848 21937 2.7 18 7 2 6 27% 4880 72717 11442 33%
c - 20.09 26 167 0 28 9289 23 96941 16934 2.7 18 7 2 5 27% 4887 72717 11442 33%
c - 21.40 26 164 0 29 10012 23 102232 19269 2.7 18 7 2 5 27% 4921 72716 11442 33%
c d 21.92 26 163 0 29 10259 23 104670 21387 2.7 19 7 2 5 27% 4894 72716 11418 33%
c u 22.03 26 163 0 29 10259 23 104670 17441 2.7 19 7 2 5 27% 4919 72716 11418 33%
c v 22.10 26 163 0 29 10259 23 104670 15381 2.7 19 7 2 5 27% 4927 72716 11418 33%
c
c  seconds   switched      rate          size/glue tier1    binary         remaining
c         MB   reductions    conflicts         size  tier2     irredundant
c           level   restarts        redundant    glue   trail         variables
c
c w 22.26 26 163 0 29 10259 23 104670 15289 2.7 19 7 2 5 27% 4927 72716 11418 33%
c x 22.38 26 163 0 29 10259 23 104670 15288 2.7 19 7 2 5 27% 4927 72317 11418 33%
c = 22.97 26 163 0 29 10259 23 104670 15288 2.7 19 7 2 5 27% 5363 72317 11200 32%
c d 22.97 26 163 0 29 10259 23 104670 14732 2.7 19 7 2 5 27% 4849 72317 11200 32%
c t 22.99 26 163 0 29 10259 23 104670 14732 2.7 19 7 2 5 27% 4842 72317 11200 32%
c u 23.15 26 163 0 29 10259 23 104670 13758 2.7 19 7 2 5 27% 4842 72317 11200 32%
c v 23.20 26 163 0 29 10259 23 104670 13411 2.7 19 7 2 5 27% 4842 72317 11200 32%
c w 23.41 26 163 0 29 10259 23 104670 13067 2.7 19 7 2 5 27% 4842 72317 11200 32%
c x 23.54 26 163 0 29 10259 23 104670 13067 2.7 19 7 2 5 27% 4842 72302 11200 32%
c - 24.83 26 161 0 30 10527 23 107619 14050 2.6 19 7 2 5 27% 4846 72300 11200 32%
c o 25.31 26 161 0 30 10730 22 110199 16319 2.6 18 7 2 5 27% 4851 72300 11200 32%
c - 25.92 26 159 0 31 10988 22 113097 16952 2.6 18 7 2 5 28% 4853 72300 11200 32%
c - 27.39 26 156 0 32 11684 22 118666 17893 2.6 19 7 1 5 28% 4860 72300 11200 32%
c - 28.91 26 153 0 33 12408 22 124323 19132 2.6 19 7 1 5 28% 4882 72300 11200 32%
c - 30.35 26 152 0 34 13088 22 130067 20336 2.6 20 7 1 5 28% 4905 72300 11200 32%
c c 31.24 28 151 0 34 13464 22 132962 23011 2.6 20 8 1 5 29% 4926 72175 11171 32%
c d 31.25 28 151 0 34 13464 22 132962 22850 2.6 20 8 1 5 29% 4868 72175 11171 32%
c u 31.33 28 151 0 34 13464 22 132962 20585 2.6 20 8 1 5 29% 4876 72175 11171 32%
c v 31.46 28 151 0 34 13464 22 132962 16830 2.6 20 8 1 5 29% 4876 72175 11171 32%
c w 31.80 28 151 0 34 13464 22 132962 16311 2.6 20 8 1 5 29% 4876 72175 11171 32%
c
c  seconds   switched      rate          size/glue tier1    binary         remaining
c         MB   reductions    conflicts         size  tier2     irredundant
c           level   restarts        redundant    glue   trail         variables
c
c d 31.80 28 151 0 34 13464 22 132962 16304 2.6 20 8 1 5 29% 4872 72175 11169 32%
c t 31.82 28 151 0 34 13464 22 132962 16304 2.6 20 8 1 5 29% 4863 72175 11169 32%
c u 31.89 28 151 0 34 13464 22 132962 15791 2.6 20 8 1 5 29% 4863 72175 11169 32%
c v 31.96 28 151 0 34 13464 22 132962 15113 2.6 20 8 1 5 29% 4863 72175 11169 32%
c w 32.23 28 151 0 34 13464 22 132962 14967 2.6 20 8 1 5 29% 4863 72175 11169 32%
c x 32.39 28 151 0 34 13464 22 132962 14941 2.6 20 8 1 5 29% 4865 69671 11169 32%
c = 33.09 28 151 0 34 13464 22 132962 14941 2.6 20 8 1 5 29% 4869 69671 11167 32%
c d 33.10 28 151 0 34 13464 22 132962 14937 2.6 20 8 1 5 29% 4863 69671 11167 32%
c t 33.11 28 151 0 34 13464 22 132962 14937 2.6 20 8 1 5 29% 4861 69671 11167 32%
c - 33.39 28 154 0 35 13604 22 135898 14878 2.6 20 8 1 5 29% 4861 69670 11167 32%
c - 34.15 28 152 0 36 14101 22 141817 17219 2.6 19 8 1 5 29% 4872 69668 11167 32%
c - 35.02 28 149 0 37 14708 21 147817 19322 2.6 20 8 1 5 29% 4876 69668 11167 32%
c - 36.14 28 146 0 38 15335 21 153899 21005 2.6 20 8 1 5 29% 4885 69667 11167 32%
c s 37.03 28 144 0 38 15791 21 158008 24833 2.6 20 8 1 5 29% 4889 69636 11167 32%
c e 37.17 28 144 0 38 15791 21 158008 24833 2.6 20 8 1 5 29% 2553 80843 9663 28%
c s 37.20 28 144 0 38 15791 21 158008 24833 2.6 20 8 1 5 29% 2553 80486 9663 28%
c e 37.22 28 144 0 38 15791 21 158008 24833 2.6 20 8 1 5 29% 2551 80531 9649 28%
c ^ 37.22 28 144 0 38 15791 21 158008 24833 2.6 20 8 1 5 29% 2551 80531 9649 28%
c - 37.58 28 144 0 39 15955 21 160064 16594 2.6 20 8 1 5 29% 2555 80531 9649 28%
c o 37.62 28 144 0 39 15973 21 160201 16726 2.6 20 8 1 5 29% 2556 80531 9649 28%
c
c  seconds   switched      rate          size/glue tier1    binary        remaining
c         MB   reductions    conflicts         size  tier2     irredundant
c           level   restarts        redundant    glue   trail        variables
c
c c 38.37 28 141 0 39 16432 21 165006 21179 2.5 20 8 1 5 29% 2575 80466 9639 28%
c d 38.37 28 141 0 39 16432 21 165006 21147 2.5 20 8 1 5 29% 2555 80466 9639 28%
c u 38.42 28 141 0 39 16432 21 165006 19076 2.5 20 8 1 5 29% 2561 80466 9639 28%
c v 38.49 28 141 0 39 16432 21 165006 15670 2.5 20 8 1 5 29% 2561 80466 9639 28%
c w 38.61 28 141 0 39 16432 21 165006 15611 2.5 20 8 1 5 29% 2561 80466 9639 28%
c x 38.69 28 141 0 39 16432 21 165006 15611 2.5 20 8 1 5 29% 2561 80391 9639 28%
c = 39.18 28 141 0 39 16432 21 165006 15611 2.5 20 8 1 5 29% 2617 80375 9611 28%
c d 39.18 28 141 0 39 16432 21 165006 15561 2.5 20 8 1 5 29% 2553 80375 9611 28%
c t 39.19 28 141 0 39 16432 21 165006 15561 2.5 20 8 1 5 29% 2548 80375 9611 28%
c f 39.28 28 141 0 39 16432 21 165006 15561 2.5 20 8 1 5 29% 2569 80003 9628 28%
c u 39.34 28 141 0 39 16432 21 165006 15148 2.5 20 8 1 5 29% 2573 80003 9628 28%
c v 39.38 28 141 0 39 16432 21 165006 14631 2.5 20 8 1 5 29% 2573 80003 9628 28%
c w 39.61 28 141 0 39 16432 21 165006 14006 2.5 20 8 1 5 29% 2573 80003 9628 28%
c = 40.11 28 141 0 39 16432 21 165006 14006 2.5 20 8 1 5 29% 2851 79658 9461 27%
c d 40.12 28 141 0 39 16432 21 165006 13432 2.5 20 8 1 5 29% 2574 79658 9461 27%
c t 40.12 28 141 0 39 16432 21 165006 13432 2.5 20 8 1 5 29% 2572 79658 9461 27%
c - 40.22 28 141 0 40 16511 21 166312 12115 2.5 20 8 1 5 29% 2549 79658 9461 27%
c i 40.32 28 139 0 40 16624 20 169005 14246 2.5 20 8 1 5 29% 2561 79658 9459 27%
c i 40.34 28 139 0 40 16647 20 169155 14378 2.5 20 8 1 5 29% 2564 79657 9458 27%
c i 40.41 28 137 0 40 16800 20 171292 16217 2.5 20 8 1 5 28% 2571 79656 9457 27%
c
c  seconds   switched      rate          size/glue tier1    binary        remaining
c         MB   reductions    conflicts         size  tier2     irredundant
c           level   restarts        redundant    glue   trail        variables
c
c - 40.47 28 136 0 41 16875 20 172637 14338 2.5 20 8 1 5 28% 2565 79656 9457 27%
c i 40.56 28 133 0 41 17011 19 175770 16913 2.5 19 8 1 5 27% 2609 79656 9456 27%
c i 40.60 28 133 0 41 17062 19 176618 17664 2.5 19 8 1 5 27% 2615 79656 9455 27%
c - 40.65 28 130 0 42 17168 19 179042 15650 2.5 19 8 1 5 26% 2619 79656 9455 27%
c i 40.65 28 130 0 42 17168 19 179293 15824 2.5 19 8 1 5 26% 2625 79656 9453 27%
c i 40.66 28 130 0 42 17169 19 179349 15865 2.5 19 8 1 5 26% 2627 79656 9452 27%
c i 40.66 28 130 0 42 17169 19 179411 15903 2.5 19 8 1 5 26% 2637 79656 9450 27%
c i 40.66 28 130 0 42 17169 19 179427 15904 2.5 19 8 1 5 26% 2641 79656 9449 27%
c i 40.66 28 130 0 42 17169 19 179428 15904 2.5 19 8 1 5 26% 2641 79656 9446 27%
c i 40.66 28 130 0 42 17169 19 179434 15904 2.5 19 8 1 5 26% 2643 79656 9445 27%
c } 40.66 28 130 0 42 17169 19 179436 15904 2.5 19 8 1 5 26% 2643 79656 9438 27%
c 0 40.66 28 130 0 42 17169 19 179436 15904 2.5 19 8 1 5 26% 2643 79656 9438 27%
c
c ---- [ result ] ------------------------------------------------------------
c
s UNSATISFIABLE
c
c ---- [ profiling ] ---------------------------------------------------------
c
c          28.58   70.29 %  search
c          28.58   70.29 %  focused
c          11.80   29.02 %  simplify
c          11.19   27.53 %  probe
c           4.97   12.23 %  sweep
c           4.61   11.33 %  vivify
c           0.76    1.86 %  eliminate
c           0.60    1.48 %  factor
c           0.45    1.10 %  congruence
c           0.41    1.02 %  substitute
c           0.24    0.59 %  preprocess
c           0.20    0.50 %  reduce
c           0.13    0.33 %  subsume
c           0.11    0.26 %  transitive
c           0.08    0.21 %  fastel
c           0.04    0.10 %  backbone
c           0.02    0.06 %  lucky
c           0.02    0.05 %  parse
c =============================================
c          40.66  100.00 %  total
c
c ---- [ statistics ] --------------------------------------------------------
c
c chronological:                         4240                2 %  conflicts
c conflicts:                           179436             4413.07 per second
c congruent:                             3676               11 %  variables
c decisions:                          3512060               19.57 per conflict
c eliminated:                           18740               54 %  variables
c factored:                              3566               10 %  variables
c fast_eliminated:                      10962               58 %  eliminated
c fast_subsumed:                           59                0 %  per subsumed
c iterations:                              12                0 %  variables
c propagations:                     158476832          3897595    per second
c reductions:                              42             4272    interval
c reordered:                                6            29906    interval
c restarts:                             17169               10    interval
c strengthened:                          4366                0 %  checks
c substituted:                           9944               29 %  variables
c subsumed:                             14238                0 %  checks
c switched:                                 0                0    interval
c vivified:                             86810               13 %  checks
c
c ---- [ glue usage ] --------------------------------------------------------
c
c focused glue 1 used 229611 clauses 54.29% accumulated 54.29% tier1
c focused glue 2 used  97720 clauses 23.10% accumulated 77.39%
c focused glue 3 used  30191 clauses  7.14% accumulated 84.53%
c focused glue 4 used  16774 clauses  3.97% accumulated 88.50%
c focused glue 5 used  10960 clauses  2.59% accumulated 91.09% tier2
c
c ---- [ resources ] ---------------------------------------------------------
c
c maximum-resident-set-size:         29667328 bytes         28 MB
c process-time:                            41s              40.66 seconds
c
c ---- [ shutting down ] -----------------------------------------------------
c
c exit 20
